
******************************************************************************
This program contains Ipopt, a library for large-scale nonlinear optimization.
 Ipopt is released as open source code under the Eclipse Public License (EPL).
         For more information visit http://projects.coin-or.org/Ipopt
******************************************************************************

This is Ipopt version 3.12.6, running with linear solver ma57.

Number of nonzeros in equality constraint Jacobian...:    10495
Number of nonzeros in inequality constraint Jacobian.:        0
Number of nonzeros in Lagrangian Hessian.............:     4498

Total number of variables............................:     4499
                     variables with only lower bounds:        0
                variables with lower and upper bounds:        0
                     variables with only upper bounds:        0
Total number of equality constraints.................:     3000
Total number of inequality constraints...............:        0
        inequality constraints with only lower bounds:        0
   inequality constraints with lower and upper bounds:        0
        inequality constraints with only upper bounds:        0

iter    objective    inf_pr   inf_du lg(mu)  ||d||  lg(rg) alpha_du alpha_pr  ls
   0  5.9960052e+07 1.00e+01 6.79e+01  -1.0 0.00e+00    -  0.00e+00 0.00e+00   0
   1  6.3577584e+07 1.46e-02 1.00e+01  -1.0 1.00e+01   0.0 1.00e+00 1.00e+00h  1
   2  1.4417006e+07 2.21e-03 2.88e+00  -1.0 5.15e+00  -0.5 1.00e+00 1.00e+00f  1
   3  2.0395445e+06 6.21e-03 2.77e+00  -1.0 8.07e+00  -1.0 1.00e+00 1.00e+00f  1
   4  2.1884476e+05 1.05e-03 5.11e-01  -1.0 3.50e+00  -1.4 1.00e+00 1.00e+00f  1
   5  1.1564798e+05 8.39e-04 1.21e-01  -1.7 2.84e+00  -1.9 1.00e+00 1.00e+00f  1
   6  8.2802038e+04 8.48e-04 6.46e-02  -2.5 2.52e+00  -2.4 1.00e+00 1.00e+00f  1
   7  7.5148412e+04 2.47e-04 1.82e-02  -2.5 1.16e+00  -2.9 1.00e+00 1.00e+00f  1
   8  7.2587316e+04 2.38e-03 4.01e-03  -3.8 3.87e+00    -  1.00e+00 1.00e+00F  1
   9  7.4589130e+04 1.12e-04 8.10e-04  -3.8 9.77e-01    -  1.00e+00 1.00e+00h  1
iter    objective    inf_pr   inf_du lg(mu)  ||d||  lg(rg) alpha_du alpha_pr  ls
  10  7.4465074e+04 1.05e-07 1.85e-06  -5.7 2.80e-02    -  1.00e+00 1.00e+00h  1
  11  7.4465030e+04 1.34e-10 7.86e-10  -8.6 9.69e-04    -  1.00e+00 1.00e+00h  1
  12  7.4465030e+04 1.70e-15 6.99e-15  -9.0 4.31e-07    -  1.00e+00 1.00e+00h  1

Number of Iterations....: 12

                                   (scaled)                 (unscaled)
Objective...............:   1.8616257222585954e+01    7.4465029999959224e+04
Dual infeasibility......:   6.9944050551384862e-15    2.7977620637452974e-11
Constraint violation....:   1.7000290064572710e-15    1.7000290064572710e-15
Complementarity.........:   0.0000000000000000e+00    0.0000000000000000e+00
Overall NLP error.......:   6.9944050551384862e-15    2.7977620637452974e-11


Number of objective function evaluations             = 14
Number of objective gradient evaluations             = 13
Number of equality constraint evaluations            = 14
Number of inequality constraint evaluations          = 0
Number of equality constraint Jacobian evaluations   = 13
Number of inequality constraint Jacobian evaluations = 0
Number of Lagrangian Hessian evaluations             = 12
Total CPU secs in IPOPT (w/o function evaluations)   =      0.070
Total CPU secs in NLP function evaluations           =      0.013

EXIT: Optimal Solution Found.

************************ CUTEst statistics ************************


 Package used            :  IPOPT
 Problem                 :  OPTCTRL3  
 # variables             =            4502
 # constraints           =            3000
 # objective functions   =        0.2800000E+02
 # objective gradients   =        0.1400000E+02
 # objective Hessians    =        0.1300000E+02
 # Hessian-vector prdct  =        0.0000000E+00
 # constraints functions =        0.2900000E+02
 # constraints gradients =        0.1500000E+02
 # constraints Hessians  =        0.1300000E+02
 Exit code               =               0
 Final f                 =   0.7446503E+05
 Set up time             =            0.07 seconds
 Solve time              =            0.25 seconds


******************************************************************

System Time =       0.0630000010 s.
